
Gurobi 7.0.2 (win64, Python) logging started 07/05/17 15:05:30


Gurobi 7.0.2 (win64, Python) logging started 07/05/17 15:11:07


Gurobi 7.0.2 (win64, Python) logging started 07/05/17 16:13:23


Gurobi 7.0.2 (win64, Python) logging started 07/05/17 16:28:44


Gurobi 7.0.2 (win64, Python) logging started 07/05/17 19:49:12


Gurobi 7.0.2 (win64, Python) logging started 07/05/17 20:26:16

Optimize a model with 280 rows, 160 columns and 600 nonzeros
Model has 820 quadratic objective terms
Variable types: 40 continuous, 120 integer (120 binary)
Coefficient statistics:
  Matrix range     [1e+00, 1e+01]
  Objective range  [2e+02, 7e+02]
  QObjective range [5e+01, 2e+03]
  Bounds range     [1e+00, 1e+00]
  RHS range        [1e+00, 1e+01]
Found heuristic solution: objective 0
Presolve time: 0.00s
Presolved: 280 rows, 160 columns, 920 nonzeros
Presolved model has 820 quadratic objective terms
Variable types: 40 continuous, 120 integer (120 binary)

Root relaxation: objective -1.751389e+03, 352 iterations, 0.00 seconds

    Nodes    |    Current Node    |     Objective Bounds      |     Work
 Expl Unexpl |  Obj  Depth IntInf | Incumbent    BestBd   Gap | It/Node Time

     0     0 -1751.3890    0   76    0.00000 -1751.3890      -     -    0s
H    0     0                    -225.4487604 -1751.3890   677%     -    0s
H    0     0                    -1292.017981 -1751.3890  35.6%     -    0s
H    0     0                    -1682.790708 -1751.3890  4.08%     -    0s
     0     2 -1751.3890    0   76 -1682.7907 -1751.3890  4.08%     -    0s
H   99    73                    -1694.272125 -1741.0065  2.76%   4.7    0s
*  243    60              59    -1725.735563 -1738.5763  0.74%   4.7    0s
H  468     9                    -1726.648890 -1734.9055  0.48%   4.3    0s

Explored 585 nodes (2820 simplex iterations) in 0.26 seconds
Thread count was 4 (of 4 available processors)

Solution count 7: -1726.65 -1725.74 -1694.27 ... 0
Pool objective bound -1726.65

Optimal solution found (tolerance 1.00e-04)
Best objective -1.726648890443e+03, best bound -1.726648890443e+03, gap 0.0000%
Optimize a model with 280 rows, 160 columns and 600 nonzeros
Model has 820 quadratic objective terms
Variable types: 40 continuous, 120 integer (120 binary)
Coefficient statistics:
  Matrix range     [1e+00, 1e+01]
  Objective range  [2e+02, 7e+02]
  QObjective range [7e+01, 2e+03]
  Bounds range     [1e+00, 1e+00]
  RHS range        [1e+00, 1e+01]
Found heuristic solution: objective 0
Presolve time: 0.00s
Presolved: 280 rows, 160 columns, 920 nonzeros
Presolved model has 820 quadratic objective terms
Variable types: 40 continuous, 120 integer (120 binary)

Root relaxation: objective -1.697694e+03, 329 iterations, 0.00 seconds

    Nodes    |    Current Node    |     Objective Bounds      |     Work
 Expl Unexpl |  Obj  Depth IntInf | Incumbent    BestBd   Gap | It/Node Time

     0     0 -1697.6935    0   72    0.00000 -1697.6935      -     -    0s
H    0     0                    -1396.867450 -1697.6935  21.5%     -    0s
H    0     0                    -1680.769319 -1697.6935  1.01%     -    0s
     0     2 -1697.6935    0   72 -1680.7693 -1697.6935  1.01%     -    0s
*  108    21              50    -1686.225661 -1688.4504  0.13%   4.9    0s

Explored 161 nodes (1093 simplex iterations) in 0.15 seconds
Thread count was 4 (of 4 available processors)

Solution count 4: -1686.23 -1680.77 -1396.87 0 
Pool objective bound -1686.26

Optimal solution found (tolerance 1.00e-04)
Best objective -1.686225661166e+03, best bound -1.686260586792e+03, gap 0.0021%

Gurobi 7.0.2 (win64, Python) logging started 07/06/17 16:01:31

Optimize a model with 280 rows, 160 columns and 600 nonzeros
Model has 820 quadratic objective terms
Variable types: 40 continuous, 120 integer (120 binary)
Coefficient statistics:
  Matrix range     [1e+00, 1e+01]
  Objective range  [2e+02, 7e+02]
  QObjective range [7e+01, 2e+03]
  Bounds range     [1e+00, 1e+00]
  RHS range        [1e+00, 1e+01]
Found heuristic solution: objective 0
Presolve time: 0.07s
Presolved: 280 rows, 160 columns, 920 nonzeros
Presolved model has 820 quadratic objective terms
Variable types: 40 continuous, 120 integer (120 binary)

Root relaxation: objective -1.697694e+03, 329 iterations, 0.01 seconds

    Nodes    |    Current Node    |     Objective Bounds      |     Work
 Expl Unexpl |  Obj  Depth IntInf | Incumbent    BestBd   Gap | It/Node Time

     0     0 -1697.6935    0   72    0.00000 -1697.6935      -     -    0s
H    0     0                    -1396.867450 -1697.6935  21.5%     -    0s
H    0     0                    -1680.769319 -1697.6935  1.01%     -    0s
     0     2 -1697.6935    0   72 -1680.7693 -1697.6935  1.01%     -    0s
*  108    21              50    -1686.225661 -1688.4504  0.13%   4.9    0s

Explored 161 nodes (1093 simplex iterations) in 0.43 seconds
Thread count was 4 (of 4 available processors)

Solution count 4: -1686.23 -1680.77 -1396.87 0 
Pool objective bound -1686.26

Optimal solution found (tolerance 1.00e-04)
Best objective -1.686225661166e+03, best bound -1.686260586792e+03, gap 0.0021%
Optimize a model with 70 rows, 70 columns and 150 nonzeros
Model has 820 quadratic objective terms
Variable types: 40 continuous, 30 integer (30 binary)
Coefficient statistics:
  Matrix range     [1e+00, 1e+01]
  Objective range  [2e+02, 7e+02]
  QObjective range [7e+01, 2e+03]
  Bounds range     [1e+00, 1e+00]
  RHS range        [1e+00, 1e+01]
Found heuristic solution: objective 8.15653e+22
Presolve time: 0.00s
Presolved: 70 rows, 70 columns, 230 nonzeros
Presolved model has 820 quadratic objective terms
Variable types: 40 continuous, 30 integer (30 binary)

Root relaxation: objective -1.697694e+03, 112 iterations, 0.00 seconds

    Nodes    |    Current Node    |     Objective Bounds      |     Work
 Expl Unexpl |  Obj  Depth IntInf | Incumbent    BestBd   Gap | It/Node Time

     0     0 -1697.6935    0   16 8.1565e+22 -1697.6935   100%     -    0s
H    0     0                    -1691.694214 -1697.6935  0.35%     -    0s
H    0     0                    -1695.204214 -1697.6935  0.15%     -    0s
     0     2 -1697.6935    0   14 -1695.2042 -1697.6935  0.15%     -    0s
*   15    10               8    -1696.677215 -1697.2736  0.04%   6.1    0s
*   21     3              10    -1697.236935 -1697.2736  0.00%   5.6    0s

Explored 23 nodes (232 simplex iterations) in 0.07 seconds
Thread count was 4 (of 4 available processors)

Solution count 5: -1697.24 -1696.68 -1695.2 ... 8.15653e+22
Pool objective bound -1697.27

Optimal solution found (tolerance 1.00e-04)
Best objective -1.697236934890e+03, best bound -1.697273557960e+03, gap 0.0022%
Optimize a model with 440 rows, 160 columns and 3800 nonzeros
Model has 820 quadratic objective terms
Variable types: 40 continuous, 120 integer (120 binary)
Coefficient statistics:
  Matrix range     [1e+00, 4e+00]
  Objective range  [2e+02, 7e+02]
  QObjective range [7e+01, 2e+03]
  Bounds range     [1e+00, 1e+00]
  RHS range        [1e+00, 1e+01]
Found heuristic solution: objective 0
Presolve removed 156 rows and 0 columns
Presolve time: 0.00s
Presolved: 284 rows, 160 columns, 1000 nonzeros
Presolved model has 820 quadratic objective terms
Variable types: 40 continuous, 120 integer (120 binary)

Root relaxation: objective -1.597081e+03, 331 iterations, 0.01 seconds

    Nodes    |    Current Node    |     Objective Bounds      |     Work
 Expl Unexpl |  Obj  Depth IntInf | Incumbent    BestBd   Gap | It/Node Time

     0     0 -1597.0811    0   74    0.00000 -1597.0811      -     -    0s
H    0     0                    -1557.344111 -1597.0811  2.55%     -    0s
     0     2 -1597.0811    0   74 -1557.3441 -1597.0811  2.55%     -    0s
*   98    83              49    -1562.606919 -1589.0073  1.69%   5.2    0s
H  109    51                    -1569.340855 -1589.0073  1.25%   5.1    0s
*  208    74              57    -1571.274845 -1585.9083  0.93%   4.9    0s
H 1271   378                    -1571.391222 -1574.4869  0.20%   4.2    0s
* 1538   459              54    -1571.414973 -1574.2788  0.18%   4.4    0s
H 3073   604                    -1571.612526 -1573.4261  0.12%   4.9    0s

Explored 7456 nodes (34154 simplex iterations) in 1.83 seconds
Thread count was 4 (of 4 available processors)

Solution count 8: -1571.61 -1571.41 -1571.39 ... 0
Pool objective bound -1571.72

Optimal solution found (tolerance 1.00e-04)
Best objective -1.571612526389e+03, best bound -1.571724955036e+03, gap 0.0072%
Optimize a model with 360 rows, 160 columns and 2160 nonzeros
Model has 820 quadratic objective terms
Variable types: 40 continuous, 120 integer (120 binary)
Coefficient statistics:
  Matrix range     [1e+00, 4e+00]
  Objective range  [2e+02, 7e+02]
  QObjective range [7e+01, 2e+03]
  Bounds range     [1e+00, 1e+00]
  RHS range        [1e+00, 1e+01]
Found heuristic solution: objective 0
Presolve removed 8 rows and 0 columns
Presolve time: 0.00s
Presolved: 352 rows, 160 columns, 2472 nonzeros
Presolved model has 820 quadratic objective terms
Variable types: 40 continuous, 120 integer (120 binary)

Root relaxation: objective -1.697694e+03, 350 iterations, 0.01 seconds

    Nodes    |    Current Node    |     Objective Bounds      |     Work
 Expl Unexpl |  Obj  Depth IntInf | Incumbent    BestBd   Gap | It/Node Time

     0     0 -1697.6935    0   76    0.00000 -1697.6935      -     -    0s
H    0     0                    -1681.531735 -1697.6935  0.96%     -    0s
     0     0 -1697.6930    0   60 -1681.5317 -1697.6930  0.96%     -    0s
     0     0 -1697.6923    0   58 -1681.5317 -1697.6923  0.96%     -    0s
     0     2 -1697.6923    0   58 -1681.5317 -1697.6923  0.96%     -    0s
*   96    45              47    -1683.440197 -1688.2052  0.28%   4.3    0s
*  150    17              40    -1686.225661 -1687.7568  0.09%   4.4    0s

Explored 207 nodes (1514 simplex iterations) in 0.38 seconds
Thread count was 4 (of 4 available processors)

Solution count 4: -1686.23 -1683.44 -1681.53 0 
Pool objective bound -1686.23

Optimal solution found (tolerance 1.00e-04)
Best objective -1.686225661166e+03, best bound -1.686225661166e+03, gap 0.0000%
Optimize a model with 360 rows, 160 columns and 2160 nonzeros
Model has 820 quadratic objective terms
Variable types: 40 continuous, 120 integer (120 binary)
Coefficient statistics:
  Matrix range     [1e+00, 4e+00]
  Objective range  [2e+02, 7e+02]
  QObjective range [7e+01, 2e+03]
  Bounds range     [1e+00, 1e+00]
  RHS range        [1e+00, 1e+01]
Found heuristic solution: objective 0
Presolve removed 8 rows and 0 columns
Presolve time: 0.00s
Presolved: 352 rows, 160 columns, 2472 nonzeros
Presolved model has 820 quadratic objective terms
Variable types: 40 continuous, 120 integer (120 binary)

Root relaxation: objective -1.697694e+03, 350 iterations, 0.01 seconds

    Nodes    |    Current Node    |     Objective Bounds      |     Work
 Expl Unexpl |  Obj  Depth IntInf | Incumbent    BestBd   Gap | It/Node Time

     0     0 -1697.6935    0   76    0.00000 -1697.6935      -     -    0s
H    0     0                    -1681.531735 -1697.6935  0.96%     -    0s
     0     0 -1697.6930    0   60 -1681.5317 -1697.6930  0.96%     -    0s
     0     0 -1697.6923    0   58 -1681.5317 -1697.6923  0.96%     -    0s
     0     2 -1697.6923    0   58 -1681.5317 -1697.6923  0.96%     -    0s
*   96    45              47    -1683.440197 -1688.2052  0.28%   4.3    0s
*  150    17              40    -1686.225661 -1687.7568  0.09%   4.4    0s

Explored 207 nodes (1514 simplex iterations) in 0.22 seconds
Thread count was 4 (of 4 available processors)

Solution count 4: -1686.23 -1683.44 -1681.53 0 
Pool objective bound -1686.23

Optimal solution found (tolerance 1.00e-04)
Best objective -1.686225661166e+03, best bound -1.686225661166e+03, gap 0.0000%
Optimize a model with 360 rows, 160 columns and 1400 nonzeros
Model has 820 quadratic objective terms
Variable types: 40 continuous, 120 integer (120 binary)
Coefficient statistics:
  Matrix range     [1e+00, 4e+00]
  Objective range  [2e+02, 7e+02]
  QObjective range [7e+01, 2e+03]
  Bounds range     [1e+00, 1e+00]
  RHS range        [1e+00, 1e+01]
Found heuristic solution: objective 0
Presolve removed 12 rows and 0 columns
Presolve time: 0.00s
Presolved: 348 rows, 160 columns, 1708 nonzeros
Presolved model has 820 quadratic objective terms
Variable types: 40 continuous, 120 integer (120 binary)

Root relaxation: objective -1.551469e+03, 297 iterations, 0.00 seconds

    Nodes    |    Current Node    |     Objective Bounds      |     Work
 Expl Unexpl |  Obj  Depth IntInf | Incumbent    BestBd   Gap | It/Node Time

     0     0 -1551.4690    0   74    0.00000 -1551.4690      -     -    0s
     0     0 -1551.4690    0   72    0.00000 -1551.4690      -     -    0s
     0     0 -1551.4690    0   68    0.00000 -1551.4690      -     -    0s
     0     0 -1551.4690    0   65    0.00000 -1551.4690      -     -    0s
     0     0 -1551.4690    0   63    0.00000 -1551.4690      -     -    0s
     0     0 -1551.4690    0   61    0.00000 -1551.4690      -     -    0s
H    0     0                    -1261.627001 -1551.4690  23.0%     -    0s
     0     0 -1551.4690    0   59 -1261.6270 -1551.4690  23.0%     -    0s
     0     0 -1551.4690    0   58 -1261.6270 -1551.4690  23.0%     -    0s
     0     0 -1551.4690    0   55 -1261.6270 -1551.4690  23.0%     -    0s
     0     0 -1551.4690    0   53 -1261.6270 -1551.4690  23.0%     -    0s
     0     0 -1551.4690    0   51 -1261.6270 -1551.4690  23.0%     -    0s
     0     0 -1551.4690    0   49 -1261.6270 -1551.4690  23.0%     -    0s
     0     0 -1551.4690    0   47 -1261.6270 -1551.4690  23.0%     -    0s
H    0     0                    -1530.467171 -1551.4690  1.37%     -    0s
H    0     0                    -1535.570312 -1551.4690  1.04%     -    0s
     0     2 -1551.4690    0   40 -1535.5703 -1551.4690  1.04%     -    0s
H   66    55                    -1536.871848 -1545.1478  0.54%   3.9    0s
*   68    51              35    -1539.418792 -1545.1478  0.37%   3.9    0s
*   75    47              34    -1541.046384 -1545.1478  0.27%   4.0    0s
*  169   101              30    -1541.364908 -1544.8792  0.23%   4.1    0s
*  351   158              30    -1541.804990 -1544.7463  0.19%   4.7    0s
*  658   268              26    -1542.091068 -1544.1346  0.13%   4.8    0s
*  667   263              31    -1542.181439 -1544.1346  0.13%   4.8    0s
H 1114   359                    -1542.193068 -1543.8905  0.11%   5.1    1s

Cutting planes:
  Gomory: 15
  MIR: 4

Explored 4916 nodes (24444 simplex iterations) in 2.53 seconds
Thread count was 4 (of 4 available processors)

Solution count 10: -1542.19 -1542.18 -1542.09 ... -1530.47
Pool objective bound -1542.29

Optimal solution found (tolerance 1.00e-04)
Best objective -1.542193068390e+03, best bound -1.542294108898e+03, gap 0.0066%
Optimize a model with 362 rows, 160 columns and 1438 nonzeros
Model has 820 quadratic objective terms
Variable types: 40 continuous, 120 integer (120 binary)
Coefficient statistics:
  Matrix range     [1e+00, 4e+00]
  Objective range  [2e+02, 7e+02]
  QObjective range [7e+01, 2e+03]
  Bounds range     [1e+00, 1e+00]
  RHS range        [1e+00, 1e+01]
Found heuristic solution: objective 0
Presolve removed 14 rows and 0 columns
Presolve time: 0.01s
Presolved: 348 rows, 160 columns, 1708 nonzeros
Presolved model has 820 quadratic objective terms
Variable types: 40 continuous, 120 integer (120 binary)

Root relaxation: objective -1.551469e+03, 297 iterations, 0.01 seconds

    Nodes    |    Current Node    |     Objective Bounds      |     Work
 Expl Unexpl |  Obj  Depth IntInf | Incumbent    BestBd   Gap | It/Node Time

     0     0 -1551.4690    0   74    0.00000 -1551.4690      -     -    0s
     0     0 -1551.4690    0   72    0.00000 -1551.4690      -     -    0s
     0     0 -1551.4690    0   68    0.00000 -1551.4690      -     -    0s
     0     0 -1551.4690    0   65    0.00000 -1551.4690      -     -    0s
     0     0 -1551.4690    0   63    0.00000 -1551.4690      -     -    0s
     0     0 -1551.4690    0   61    0.00000 -1551.4690      -     -    0s
H    0     0                    -1261.627001 -1551.4690  23.0%     -    0s
     0     0 -1551.4690    0   59 -1261.6270 -1551.4690  23.0%     -    0s
     0     0 -1551.4690    0   58 -1261.6270 -1551.4690  23.0%     -    0s
     0     0 -1551.4690    0   55 -1261.6270 -1551.4690  23.0%     -    0s
     0     0 -1551.4690    0   53 -1261.6270 -1551.4690  23.0%     -    0s
     0     0 -1551.4690    0   51 -1261.6270 -1551.4690  23.0%     -    0s
     0     0 -1551.4690    0   49 -1261.6270 -1551.4690  23.0%     -    0s
     0     0 -1551.4690    0   47 -1261.6270 -1551.4690  23.0%     -    0s
H    0     0                    -1530.467171 -1551.4690  1.37%     -    0s
H    0     0                    -1535.570312 -1551.4690  1.04%     -    0s
     0     2 -1551.4690    0   40 -1535.5703 -1551.4690  1.04%     -    0s
H   66    55                    -1536.871848 -1545.1478  0.54%   3.9    0s
*   68    51              35    -1539.418792 -1545.1478  0.37%   3.9    0s
*   75    47              34    -1541.046384 -1545.1478  0.27%   4.0    0s
*  169   101              30    -1541.364908 -1544.8792  0.23%   4.1    0s
*  351   158              30    -1541.804990 -1544.7463  0.19%   4.7    0s
*  658   268              26    -1542.091068 -1544.1346  0.13%   4.8    0s
*  667   263              31    -1542.181439 -1544.1346  0.13%   4.8    0s
H 1114   359                    -1542.193068 -1543.8905  0.11%   5.1    0s

Cutting planes:
  Gomory: 15
  MIR: 4

Explored 4910 nodes (24663 simplex iterations) in 2.41 seconds
Thread count was 4 (of 4 available processors)

Solution count 10: -1542.19 -1542.18 -1542.09 ... -1530.47
Pool objective bound -1542.3

Optimal solution found (tolerance 1.00e-04)
Best objective -1.542193068390e+03, best bound -1.542304481099e+03, gap 0.0072%
Optimize a model with 362 rows, 160 columns and 1440 nonzeros
Model has 820 quadratic objective terms
Variable types: 40 continuous, 120 integer (120 binary)
Coefficient statistics:
  Matrix range     [1e+00, 4e+00]
  Objective range  [2e+02, 7e+02]
  QObjective range [7e+01, 2e+03]
  Bounds range     [1e+00, 1e+00]
  RHS range        [1e+00, 1e+01]
Found heuristic solution: objective 0
Presolve removed 12 rows and 0 columns
Presolve time: 0.00s
Presolved: 350 rows, 160 columns, 1748 nonzeros
Presolved model has 820 quadratic objective terms
Variable types: 40 continuous, 120 integer (120 binary)

Root relaxation: objective -1.500020e+03, 286 iterations, 0.00 seconds

    Nodes    |    Current Node    |     Objective Bounds      |     Work
 Expl Unexpl |  Obj  Depth IntInf | Incumbent    BestBd   Gap | It/Node Time

     0     0 -1500.0203    0   74    0.00000 -1500.0203      -     -    0s
     0     0 -1500.0203    0   72    0.00000 -1500.0203      -     -    0s
     0     0 -1500.0203    0   68    0.00000 -1500.0203      -     -    0s
     0     0 -1500.0203    0   65    0.00000 -1500.0203      -     -    0s
     0     0 -1500.0203    0   63    0.00000 -1500.0203      -     -    0s
     0     0 -1500.0203    0   61    0.00000 -1500.0203      -     -    0s
     0     0 -1500.0203    0   59    0.00000 -1500.0203      -     -    0s
     0     0 -1500.0203    0   58    0.00000 -1500.0203      -     -    0s
     0     0 -1500.0203    0   55    0.00000 -1500.0203      -     -    0s
     0     0 -1500.0203    0   53    0.00000 -1500.0203      -     -    0s
H    0     0                    -681.5048990 -1500.0203   120%     -    0s
     0     0 -1500.0203    0   51 -681.50490 -1500.0203   120%     -    0s
     0     0 -1500.0203    0   49 -681.50490 -1500.0203   120%     -    0s
     0     0 -1500.0203    0   47 -681.50490 -1500.0203   120%     -    0s
     0     0 -1500.0203    0   45 -681.50490 -1500.0203   120%     -    0s
H    0     0                    -1479.786934 -1500.0203  1.37%     -    0s
     0     2 -1500.0203    0   42 -1479.7869 -1500.0203  1.37%     -    0s
H   65    37                    -1492.325938 -1493.7534  0.10%   3.8    0s
*  126    16              32    -1493.223221 -1493.5424  0.02%   3.9    0s

Cutting planes:
  Gomory: 16
  MIR: 4

Explored 162 nodes (1009 simplex iterations) in 0.28 seconds
Thread count was 4 (of 4 available processors)

Solution count 5: -1493.22 -1492.33 -1479.79 ... 0
Pool objective bound -1493.22

Optimal solution found (tolerance 1.00e-04)
Best objective -1.493223221492e+03, best bound -1.493223221492e+03, gap 0.0000%

Gurobi 7.0.2 (win64, Python) logging started 07/06/17 16:49:46

Optimize a model with 362 rows, 160 columns and 1440 nonzeros
Model has 820 quadratic objective terms
Variable types: 40 continuous, 120 integer (120 binary)
Coefficient statistics:
  Matrix range     [1e+00, 4e+00]
  Objective range  [2e+02, 7e+02]
  QObjective range [7e+01, 2e+03]
  Bounds range     [1e+00, 1e+00]
  RHS range        [1e+00, 5e+00]
Found heuristic solution: objective 0
Presolve removed 6 rows and 0 columns
Presolve time: 0.00s
Presolved: 356 rows, 160 columns, 1764 nonzeros
Presolved model has 820 quadratic objective terms
Variable types: 40 continuous, 120 integer (120 binary)

Root relaxation: objective -1.669916e+03, 316 iterations, 0.01 seconds

    Nodes    |    Current Node    |     Objective Bounds      |     Work
 Expl Unexpl |  Obj  Depth IntInf | Incumbent    BestBd   Gap | It/Node Time

     0     0 -1669.9157    0   80    0.00000 -1669.9157      -     -    0s
     0     0 -1669.9157    0   78    0.00000 -1669.9157      -     -    0s
     0     0 -1669.9157    0   76    0.00000 -1669.9157      -     -    0s
     0     0 -1669.9157    0   74    0.00000 -1669.9157      -     -    0s
H    0     0                    -1585.270722 -1669.9157  5.34%     -    0s
     0     2 -1669.9157    0   74 -1585.2707 -1669.9157  5.34%     -    0s
H  109    83                    -1605.442886 -1663.8635  3.64%   4.3    0s
*  112    83              54    -1607.055291 -1663.8635  3.53%   4.4    0s
*  183   102              55    -1631.614836 -1663.8635  1.98%   4.8    0s
*  422   231              50    -1632.566694 -1658.7859  1.61%   4.6    0s

Cutting planes:
  Gomory: 3

Explored 3716 nodes (20529 simplex iterations) in 1.45 seconds
Thread count was 4 (of 4 available processors)

Solution count 6: -1632.57 -1631.61 -1607.06 ... 0
Pool objective bound -1632.57

Optimal solution found (tolerance 1.00e-04)
Best objective -1.632566693990e+03, best bound -1.632566693990e+03, gap 0.0000%
Optimize a model with 362 rows, 160 columns and 1440 nonzeros
Model has 820 quadratic objective terms
Variable types: 40 continuous, 120 integer (120 binary)
Coefficient statistics:
  Matrix range     [1e+00, 4e+00]
  Objective range  [2e+02, 7e+02]
  QObjective range [7e+01, 2e+03]
  Bounds range     [1e+00, 1e+00]
  RHS range        [1e+00, 5e+00]
Presolved: 356 rows, 160 columns, 1764 nonzeros
Presolved model has 820 quadratic objective terms

Continuing optimization...


Cutting planes:
  Gomory: 3

Explored 3716 nodes (20529 simplex iterations) in 0.01 seconds
Thread count was 4 (of 4 available processors)

Solution count 6: -1632.57 -1631.61 -1607.06 ... 0
Pool objective bound -1632.57

Optimal solution found (tolerance 1.00e-04)
Best objective -1.632566693990e+03, best bound -1.632566693990e+03, gap 0.0000%

Gurobi 7.0.2 (win64, Python) logging started 07/26/17 09:01:58


Gurobi 7.0.2 (win64, Python) logging started 09/06/17 12:15:04

